words_hard_train/3598.qaiger
aag 35 11 0 1 24
2
4
8
10
16
18
22
24
32
34
42
71
6 2 5
12 8 10
14 6 12
20 16 18
26 22 24
28 20 26
30 14 28
36 32 34
38 36 12
40 35 4
44 41 42
46 32 8
48 47 11
50 44 49
52 39 51
54 33 43
56 54 35
58 13 35
60 59 5
62 57 61
64 52 62
66 30 65
68 31 64
70 67 69
i0 1 x2[4]
i1 1 x2[7]
i2 1 x2[5]
i3 1 x2[6]
i4 1 x2[2]
i5 1 x2[3]
i6 1 x2[0]
i7 1 x2[1]
i8 2 y1[0]
i9 2 y1[2]
i10 2 y1[1]
o0 bv[0]
c
simplified
  >=
    add
      << 5
        2 y1
      1 x2
    add
      1
      1 x2
