words_hard_train/3598.qaiger.qdimacs
p cnf 35 73
a 1 2 4 5 8 9 11 12 0
e 3 6 7 10 13 14 15 16 17 18 19 20 21 22 23 24 25 26 27 28 29 30 31 32 33 34 35 0
-1 2 3 0
1 -3 0
-2 -3 0
-4 -5 6 0
4 -6 0
5 -6 0
-3 -6 7 0
3 -7 0
6 -7 0
-8 -9 10 0
8 -10 0
9 -10 0
-11 -12 13 0
11 -13 0
12 -13 0
-10 -13 14 0
10 -14 0
13 -14 0
-7 -14 15 0
7 -15 0
14 -15 0
-16 -17 18 0
16 -18 0
17 -18 0
-18 -6 19 0
18 -19 0
6 -19 0
17 -2 20 0
-17 -20 0
2 -20 0
20 -21 22 0
-20 -22 0
21 -22 0
-16 -4 23 0
16 -23 0
4 -23 0
23 5 24 0
-23 -24 0
-5 -24 0
-22 24 25 0
22 -25 0
-24 -25 0
19 25 26 0
-19 -26 0
-25 -26 0
16 21 27 0
-16 -27 0
-21 -27 0
-27 17 28 0
27 -28 0
-17 -28 0
6 17 29 0
-6 -29 0
-17 -29 0
29 2 30 0
-29 -30 0
-2 -30 0
28 30 31 0
-28 -31 0
-30 -31 0
-26 -31 32 0
26 -32 0
31 -32 0
-15 32 33 0
15 -33 0
-32 -33 0
15 -32 34 0
-15 -34 0
32 -34 0
33 34 35 0
-33 -35 0
-34 -35 0
-35 0
